20 85 5
0 3 1
0 4 1
0 10 1
0 12 1
0 16 1
0 18 1
0 19 1
1 3 1
1 4 1
1 7 1
1 9 1
1 10 1
1 11 1
1 12 1
1 15 1
1 17 1
2 3 1
2 4 1
2 8 1
2 10 1
2 14 1
2 16 1
2 17 1
2 18 1
2 19 1
3 4 1
3 5 1
3 8 1
3 10 1
3 11 1
3 12 1
3 13 1
3 14 1
3 15 1
3 16 1
3 18 1
3 19 1
4 6 1
4 8 1
4 9 1
4 10 1
4 12 1
4 13 1
4 15 1
4 16 1
4 17 1
4 18 1
4 19 1
5 6 1
5 9 1
5 10 1
5 12 1
5 16 1
6 8 1
6 9 1
6 10 1
6 15 1
6 16 1
6 17 1
6 18 1
6 19 1
7 10 1
7 16 1
7 18 1
8 13 1
8 18 1
8 19 1
9 12 1
9 14 1
10 11 1
10 15 1
10 17 1
10 19 1
11 16 1
11 17 1
12 15 1
12 19 1
13 15 1
13 16 1
13 17 1
13 18 1
14 15 1
14 17 1
17 19 1
18 19 1
4 7 12 17 19